2
20
32
40	34
1	2	8	7	17	3	
2	1	31	4	
3	2	8	10	7	16	
4	1	20	2	
5	1	22	3	
6	2	8	17	12	8	
7	2	29	2	34	2	
8	1	8	10	
9	2	20	8	23	3	
10	2	22	3	5	15	
11	2	13	9	8	4	
12	1	16	9	
13	2	10	5	14	5	
14	1	31	3	
15	2	30	2	13	7	
16	1	5	13	
17	2	18	10	24	3	
18	2	21	3	8	16	
19	1	6	14	
20	2	27	4	17	4	
